Route #1: 73 72 74 75 56 39 67 23 25 55 22 41 15 43 14 44 38 86 16 61 85 91 100 37 98 92
Route #2: 54 24 29 79 84 17 45 46 47 36 49 64 11 63 90 32 78 34 35 65 71 66 20 51 9 81 33 3 77 76
Route #3: 13 94 95 97 87 42 57 2 59 93 99 30 70 10 62 19 48 82 8 83 60 5 96 6 89
Route #4: 27 52 18 7 88 31 69 1 50 68 80 12 4 21 40 58 26 28 53
Cost 766.5321990476613